layers = 3;
width = [8, 8, 4];
nodes = 20;
edges = 20;
start = [ 9, 15,  1, 12, 14,  8,  9,  5, 13,  9,  6,  5,  5,  8, 16,  6, 12,  4,  6,  7];
end =   [17, 20, 15, 17, 20, 10, 18, 10, 17, 20, 15, 13, 15, 16, 19, 12, 18, 14, 10, 15];
